p cnf 10 27
10 2 -4 6 0
8 -4 0
2 -3 6 0
10 0
-7 7 0
-5 4 0
1 5 6 -2 0
-7 10 -1 -2 0
9 10 3 6 0
8 -9 0
-10 0
8 0
-3 6 0
-7 -3 -9 0
-2 0
3 -1 0
1 -6 0
5 0
-8 1 -6 5 0
-5 5 6 0
-4 0
-8 1 0
-4 -2 0
-7 -6 0
-1 0
4 0
8 0
